(set-info :smt-lib-version 2.6)
(set-logic QF_UF)
(set-info :source |
Generated by: Aman Goel (amangoel@umich.edu), Karem A. Sakallah (karem@umich.edu)
Generated on: 2018-04-06

Generated by the tool Averroes 2 (successor of [1]) which implements safety property
verification on hardware systems.

This SMT problem belongs to a set of SMT problems generated by applying Averroes 2
to benchmarks derived from [2-5].

A total of 412 systems (345 from [2], 19 from [3], 26 from [4], 22 from [5]) were
syntactically converted from their original formats (using [6, 7]), and given to 
Averroes 2 to perform property checking with abstraction (wide bit-vectors -> terms, 
wide operators -> UF) using SMT solvers [8, 9].

[1] Lee S., Sakallah K.A. (2014) Unbounded Scalable Verification Based on Approximate
Property-Directed Reachability and Datapath Abstraction. In: Biere A., Bloem R. (eds)
Computer Aided Verification. CAV 2014. Lecture Notes in Computer Science, vol 8559.
Springer, Cham
[2] http://fmv.jku.at/aiger/index.html#beem
[3] http://www.cs.cmu.edu/~modelcheck/vcegar
[4] http://www.cprover.org/hardware/v2c
[5] http://github.com/aman-goel/verilogbench
[6] http://www.clifford.at/yosys
[7] http://github.com/chengyinwu/V3
[8] http://github.com/Z3Prover/z3
[9] http://github.com/SRI-CSL/yices2

id: at.5.prop1
query-maker: "Yices 2"
query-time: 0.174000 ms
query-class: abstract
query-category: oneshot
query-type: regular
status: sat
|)
(set-info :license "https://creativecommons.org/licenses/by/4.0/")
(set-info :category "industrial")

;
(set-info :status sat)
(declare-sort utt$8 0)
(declare-sort utt$32 0)
(declare-fun Add_32_32_32 (utt$32 utt$32 ) utt$32)
(declare-fun GrEq_1_32_32 (utt$32 utt$32 ) Bool)
(declare-fun y$1 () Bool)
(declare-fun y$101 () Bool)
(declare-fun y$103 () Bool)
(declare-fun y$105 () Bool)
(declare-fun y$107 () Bool)
(declare-fun y$109 () Bool)
(declare-fun y$11 () Bool)
(declare-fun y$111 () Bool)
(declare-fun y$113 () Bool)
(declare-fun y$115 () Bool)
(declare-fun y$117 () Bool)
(declare-fun y$119 () Bool)
(declare-fun y$121 () Bool)
(declare-fun y$123 () Bool)
(declare-fun y$126 () Bool)
(declare-fun y$128 () Bool)
(declare-fun y$13 () Bool)
(declare-fun y$130 () Bool)
(declare-fun y$132 () Bool)
(declare-fun y$134 () Bool)
(declare-fun y$136 () Bool)
(declare-fun y$138 () Bool)
(declare-fun y$140 () Bool)
(declare-fun y$15 () Bool)
(declare-fun y$17 () Bool)
(declare-fun y$19 () Bool)
(declare-fun y$21 () Bool)
(declare-fun y$23 () Bool)
(declare-fun y$25 () Bool)
(declare-fun y$27 () Bool)
(declare-fun y$29 () Bool)
(declare-fun y$3 () Bool)
(declare-fun y$31 () Bool)
(declare-fun y$33 () Bool)
(declare-fun y$35 () Bool)
(declare-fun y$37 () Bool)
(declare-fun y$3710 () Bool)
(declare-fun y$3713 () Bool)
(declare-fun y$3714 () Bool)
(declare-fun y$3792 () Bool)
(declare-fun y$3820 () Bool)
(declare-fun y$3832 () Bool)
(declare-fun y$3844 () Bool)
(declare-fun y$3845 () Bool)
(declare-fun y$3846 () Bool)
(declare-fun y$3847 () Bool)
(declare-fun y$3848 () Bool)
(declare-fun y$3849 () Bool)
(declare-fun y$3850 () Bool)
(declare-fun y$3859 () Bool)
(declare-fun y$39 () Bool)
(declare-fun y$41 () Bool)
(declare-fun y$43 () Bool)
(declare-fun y$45 () Bool)
(declare-fun y$47 () Bool)
(declare-fun y$49 () Bool)
(declare-fun y$5 () Bool)
(declare-fun y$51 () Bool)
(declare-fun y$53 () Bool)
(declare-fun y$55 () Bool)
(declare-fun y$57 () Bool)
(declare-fun y$59 () Bool)
(declare-fun y$61 () Bool)
(declare-fun y$63 () Bool)
(declare-fun y$65 () Bool)
(declare-fun y$67 () Bool)
(declare-fun y$69 () Bool)
(declare-fun y$7 () Bool)
(declare-fun y$71 () Bool)
(declare-fun y$73 () Bool)
(declare-fun y$75 () Bool)
(declare-fun y$77 () Bool)
(declare-fun y$79 () Bool)
(declare-fun y$81 () Bool)
(declare-fun y$83 () Bool)
(declare-fun y$85 () Bool)
(declare-fun y$87 () Bool)
(declare-fun y$89 () Bool)
(declare-fun y$9 () Bool)
(declare-fun y$91 () Bool)
(declare-fun y$93 () Bool)
(declare-fun y$95 () Bool)
(declare-fun y$97 () Bool)
(declare-fun y$99 () Bool)
(declare-fun y$a_CS_P_0 () Bool)
(declare-fun y$a_CS_P_0$next () Bool)
(declare-fun y$a_CS_P_1 () Bool)
(declare-fun y$a_CS_P_1$next () Bool)
(declare-fun y$a_CS_P_2 () Bool)
(declare-fun y$a_CS_P_3 () Bool)
(declare-fun y$a_CS_P_4 () Bool)
(declare-fun y$a_NCS_P_0 () Bool)
(declare-fun y$a_NCS_P_1 () Bool)
(declare-fun y$a_NCS_P_2 () Bool)
(declare-fun y$a_NCS_P_3 () Bool)
(declare-fun y$a_NCS_P_4 () Bool)
(declare-fun y$a_p12_P_0 () Bool)
(declare-fun y$a_p12_P_1 () Bool)
(declare-fun y$a_p12_P_2 () Bool)
(declare-fun y$a_p12_P_3 () Bool)
(declare-fun y$a_p12_P_4 () Bool)
(declare-fun y$a_p13_P_0 () Bool)
(declare-fun y$a_p13_P_1 () Bool)
(declare-fun y$a_p13_P_2 () Bool)
(declare-fun y$a_p13_P_3 () Bool)
(declare-fun y$a_p13_P_4 () Bool)
(declare-fun y$a_p2_P_0 () Bool)
(declare-fun y$a_p2_P_1 () Bool)
(declare-fun y$a_p2_P_2 () Bool)
(declare-fun y$a_p2_P_3 () Bool)
(declare-fun y$a_p2_P_4 () Bool)
(declare-fun y$a_p3_P_0 () Bool)
(declare-fun y$a_p3_P_1 () Bool)
(declare-fun y$a_p3_P_2 () Bool)
(declare-fun y$a_p3_P_3 () Bool)
(declare-fun y$a_p3_P_4 () Bool)
(declare-fun y$a_p4_P_0 () Bool)
(declare-fun y$a_p4_P_1 () Bool)
(declare-fun y$a_p4_P_2 () Bool)
(declare-fun y$a_p4_P_3 () Bool)
(declare-fun y$a_p4_P_4 () Bool)
(declare-fun y$a_p5_P_0 () Bool)
(declare-fun y$a_p5_P_1 () Bool)
(declare-fun y$a_p5_P_2 () Bool)
(declare-fun y$a_p5_P_3 () Bool)
(declare-fun y$a_p5_P_4 () Bool)
(declare-fun y$a_p6_P_0 () Bool)
(declare-fun y$a_p6_P_1 () Bool)
(declare-fun y$a_p6_P_2 () Bool)
(declare-fun y$a_p6_P_3 () Bool)
(declare-fun y$a_p6_P_4 () Bool)
(declare-fun y$a_p7_P_0 () Bool)
(declare-fun y$a_p7_P_1 () Bool)
(declare-fun y$a_p7_P_2 () Bool)
(declare-fun y$a_p7_P_3 () Bool)
(declare-fun y$a_p7_P_4 () Bool)
(declare-fun y$a_p8_P_0 () Bool)
(declare-fun y$a_p8_P_1 () Bool)
(declare-fun y$a_p8_P_2 () Bool)
(declare-fun y$a_p8_P_3 () Bool)
(declare-fun y$a_p8_P_4 () Bool)
(declare-fun y$a_p9_P_0 () Bool)
(declare-fun y$a_p9_P_1 () Bool)
(declare-fun y$a_p9_P_2 () Bool)
(declare-fun y$a_p9_P_3 () Bool)
(declare-fun y$a_p9_P_4 () Bool)
(declare-fun y$a_q () Bool)
(declare-fun y$dve_invalid () Bool)
(declare-fun y$id84 () Bool)
(declare-fun y$id84_op () Bool)
(declare-fun y$n0s32 () utt$32)
(declare-fun y$n0s8 () utt$8)
(declare-fun y$n1s32 () utt$32)
(declare-fun y$n1s8 () utt$8)
(declare-fun y$n255s32 () utt$32)
(declare-fun y$n255s8 () utt$8)
(declare-fun y$n2s8 () utt$8)
(declare-fun y$n3s8 () utt$8)
(declare-fun y$n4s8 () utt$8)
(declare-fun y$n5s8 () utt$8)
(declare-fun y$prop () Bool)
(declare-fun y$v3_1517448492_73 () utt$32)
(declare-fun y$v3_1517448492_73$next () utt$32)
(declare-fun y$v3_1517448492_73$next_op () utt$32)
(declare-fun y$v3_1517448492_73_op () utt$32)
(declare-fun y$v3_1517448492_74 () utt$32)
(declare-fun y$v3_1517448492_74$next () utt$32)
(declare-fun y$v3_1517448492_74$next_op () utt$32)
(declare-fun y$v3_1517448492_74_op () utt$32)
(declare-fun y$v3_1517448492_75 () utt$32)
(declare-fun y$v3_1517448492_75$next () utt$32)
(declare-fun y$v3_1517448492_75$next_op () utt$32)
(declare-fun y$v3_1517448492_75_op () utt$32)
(declare-fun y$v3_1517448492_76 () utt$32)
(declare-fun y$v3_1517448492_76_op () utt$32)
(declare-fun y$v3_1517448492_77 () utt$32)
(declare-fun y$v3_1517448492_77_op () utt$32)
(declare-fun y$v3_1517448492_78 () utt$32)
(declare-fun y$v3_1517448492_78_op () utt$32)
(declare-fun y$v3_1517448492_79 () utt$32)
(declare-fun y$v3_1517448492_79_op () utt$32)
(declare-fun y$v3_1517448492_80 () utt$32)
(declare-fun y$v3_1517448492_80_op () utt$32)
(declare-fun y$v3_1517448492_81 () utt$32)
(declare-fun y$v3_1517448492_81_op () utt$32)
(declare-fun y$v3_1517448492_82 () Bool)
(declare-fun y$v3_1517448492_82_op () Bool)
(declare-fun y$v_t_0 () utt$8)
(declare-fun y$v_t_1 () utt$8)
(declare-fun y$v_t_2 () utt$8)
(declare-fun y$v_t_3 () utt$8)
(declare-fun y$v_t_4 () utt$8)
(declare-fun y$v_x () utt$8)
(declare-fun y$v_y () utt$8)
(declare-fun y$v_z () utt$8)
(assert (distinct y$n0s8 y$n4s8 y$n3s8 y$n2s8 y$n1s8 y$n255s8 y$n5s8))
(assert (distinct y$n1s32 y$n255s32 y$n0s32))
(assert (= y$a_CS_P_0 (not y$1)))
(assert (= y$a_CS_P_1 (not y$3)))
(assert (= y$a_CS_P_2 (not y$5)))
(assert (= y$a_CS_P_3 (not y$7)))
(assert (= y$a_CS_P_4 (not y$9)))
(assert (= y$a_NCS_P_0 (not y$11)))
(assert (= y$a_NCS_P_1 (not y$13)))
(assert (= y$a_NCS_P_2 (not y$15)))
(assert (= y$a_NCS_P_3 (not y$17)))
(assert (= y$a_NCS_P_4 (not y$19)))
(assert (= y$a_p12_P_0 (not y$21)))
(assert (= y$a_p12_P_1 (not y$23)))
(assert (= y$a_p12_P_2 (not y$25)))
(assert (= y$a_p12_P_3 (not y$27)))
(assert (= y$a_p12_P_4 (not y$29)))
(assert (= y$a_p13_P_0 (not y$31)))
(assert (= y$a_p13_P_1 (not y$33)))
(assert (= y$a_p13_P_2 (not y$35)))
(assert (= y$a_p13_P_3 (not y$37)))
(assert (= y$a_p13_P_4 (not y$39)))
(assert (= y$a_p2_P_0 (not y$41)))
(assert (= y$a_p2_P_1 (not y$43)))
(assert (= y$a_p2_P_2 (not y$45)))
(assert (= y$a_p2_P_3 (not y$47)))
(assert (= y$a_p2_P_4 (not y$49)))
(assert (= y$a_p3_P_0 (not y$51)))
(assert (= y$a_p3_P_1 (not y$53)))
(assert (= y$a_p3_P_2 (not y$55)))
(assert (= y$a_p3_P_3 (not y$57)))
(assert (= y$a_p3_P_4 (not y$59)))
(assert (= y$a_p4_P_0 (not y$61)))
(assert (= y$a_p4_P_1 (not y$63)))
(assert (= y$a_p4_P_2 (not y$65)))
(assert (= y$a_p4_P_3 (not y$67)))
(assert (= y$a_p4_P_4 (not y$69)))
(assert (= y$a_p5_P_0 (not y$71)))
(assert (= y$a_p5_P_1 (not y$73)))
(assert (= y$a_p5_P_2 (not y$75)))
(assert (= y$a_p5_P_3 (not y$77)))
(assert (= y$a_p5_P_4 (not y$79)))
(assert (= y$a_p6_P_0 (not y$81)))
(assert (= y$a_p6_P_1 (not y$83)))
(assert (= y$a_p6_P_2 (not y$85)))
(assert (= y$a_p6_P_3 (not y$87)))
(assert (= y$a_p6_P_4 (not y$89)))
(assert (= y$a_p7_P_0 (not y$91)))
(assert (= y$a_p7_P_1 (not y$93)))
(assert (= y$a_p7_P_2 (not y$95)))
(assert (= y$a_p7_P_3 (not y$97)))
(assert (= y$a_p7_P_4 (not y$99)))
(assert (= y$a_p8_P_0 (not y$101)))
(assert (= y$a_p8_P_1 (not y$103)))
(assert (= y$a_p8_P_2 (not y$105)))
(assert (= y$a_p8_P_3 (not y$107)))
(assert (= y$a_p8_P_4 (not y$109)))
(assert (= y$a_p9_P_0 (not y$111)))
(assert (= y$a_p9_P_1 (not y$113)))
(assert (= y$a_p9_P_2 (not y$115)))
(assert (= y$a_p9_P_3 (not y$117)))
(assert (= y$a_p9_P_4 (not y$119)))
(assert (= y$a_q (not y$121)))
(assert (= y$dve_invalid (not y$123)))
(assert (= y$126 (= y$n0s8 y$v_t_0)))
(assert (= y$128 (= y$n0s8 y$v_t_1)))
(assert (= y$130 (= y$n0s8 y$v_t_2)))
(assert (= y$132 (= y$n0s8 y$v_t_3)))
(assert (= y$134 (= y$n0s8 y$v_t_4)))
(assert (= y$136 (= y$n0s8 y$v_x)))
(assert (= y$138 (= y$n0s8 y$v_y)))
(assert (= y$140 (= y$n0s8 y$v_z)))
(assert (= y$prop (not y$3792)))
(assert (= y$v3_1517448492_73_op (ite y$a_CS_P_0 y$n1s32 y$n0s32)))
(assert (= y$v3_1517448492_74_op (ite y$a_CS_P_1 y$n1s32 y$n0s32)))
(assert (= y$v3_1517448492_75_op (Add_32_32_32 y$v3_1517448492_73_op y$v3_1517448492_74_op)))
(assert (= y$v3_1517448492_76_op (ite y$a_CS_P_2 y$n1s32 y$n0s32)))
(assert (= y$v3_1517448492_77_op (Add_32_32_32 y$v3_1517448492_75_op y$v3_1517448492_76_op)))
(assert (= y$v3_1517448492_78_op (ite y$a_CS_P_3 y$n1s32 y$n0s32)))
(assert (= y$v3_1517448492_79_op (Add_32_32_32 y$v3_1517448492_77_op y$v3_1517448492_78_op)))
(assert (= y$v3_1517448492_80_op (ite y$a_CS_P_4 y$n1s32 y$n0s32)))
(assert (= y$v3_1517448492_81_op (Add_32_32_32 y$v3_1517448492_79_op y$v3_1517448492_80_op)))
(assert (= y$v3_1517448492_82_op (GrEq_1_32_32 y$n1s32 y$v3_1517448492_81_op)))
(assert (= y$v3_1517448492_82_op (not y$3710)))
(assert (= y$id84_op (and y$123 y$3710)))
(assert (= y$id84_op (not y$3713)))
(assert (= y$3714 (= y$prop y$3713)))
(assert (= y$a_CS_P_0$next (not y$3845)))
(assert (= y$a_CS_P_1$next (not y$3846)))
(assert (= y$v3_1517448492_73$next_op (ite y$a_CS_P_0$next y$n1s32 y$n0s32)))
(assert (= y$v3_1517448492_74$next_op (ite y$a_CS_P_1$next y$n1s32 y$n0s32)))
(assert (= y$v3_1517448492_75$next_op (Add_32_32_32 y$v3_1517448492_73$next_op y$v3_1517448492_74$next_op)))
(assert (= y$3847 (not (= y$n0s32 y$v3_1517448492_75$next_op))))
(assert (= y$3848 (and y$3845 y$3846 y$3847)))
(assert (= y$3848 (not y$3850)))
(assert (= y$3832 (not (= y$n0s32 y$v3_1517448492_75_op))))
(assert (= y$3844 (and y$1 y$3 y$3832)))
(assert (= y$3844 (not y$3849)))
(assert (= y$3859 (and y$1 y$3 y$5 y$7 y$9 y$11 y$13 y$15 y$17 y$19 y$21 y$23 y$25 y$27 y$29 y$31 y$33 y$35 y$37 y$39 y$41 y$43 y$45 y$47 y$49 y$51 y$53 y$55 y$57 y$59 y$61 y$63 y$65 y$67 y$69 y$71 y$73 y$75 y$77 y$79 y$81 y$83 y$85 y$87 y$89 y$91 y$93 y$95 y$97 y$99 y$101 y$103 y$105 y$107 y$109 y$111 y$113 y$115 y$117 y$119 y$121 y$123 y$126 y$128 y$130 y$132 y$134 y$136 y$138 y$140 y$3792 y$3714 y$3850 y$3849)))
(assert y$3859)
(check-sat)
(exit)
